c turning on binary mode checking
c parsing input formula with 259840 variables and 1039934 clauses
c finished parsing, read 2928731 bytes from proof file
c detected empty clause; start verification via backward checking
c 5212 of 1039934 clauses in core                            
c 1850 of 113300 lemmas in core using 39928 resolution steps
c 0 RAT lemmas in core; 281 redundant literals in core lemmas
s VERIFIED
c verification time: 1.358 seconds
